
-4.1
-4.0
-4.0
-4.0
-3.9
-3.9
-3.7
-3.6
-3.5
-3.4
-3.4
-3.4
-3.4
-3.4
-3.3
-3.1
-3.1
-3.1
-3.0
-3.0
-3.0
-3.0
-3.0
-3.0
-2.9
-2.9
-2.9
-2.9
-2.9
-2.9
-4.0
-3.7
-3.5
-3.4
-3.4
-3.3
-3.2
-3.1
-3.1
-3.0
-2.9
-2.8
-2.8
-2.8
-2.8
-2.8
-2.8
-2.8
-2.7
-2.6